(set-info :smt-lib-version 2.6)
(set-logic LRA)
(set-info :source |
   Monniaux, David; Quantifier Elimination by Lazy Model Enumeration, CAV 2010
|)
(set-info :category "random")
; ./Mjollnir_examples/B6/formula_244.m
(set-info :status unsat)
(assert
 (forall ((|v17:0| Real) )(forall ((|v16:1| Real) )(forall ((|v15:2| Real) )(forall ((|v14:3| Real) )(forall ((|v13:4| Real) )(forall ((|v12:5| Real) )(exists ((|v11:6| Real) )(exists ((|v10:7| Real) )(exists ((|v9:8| Real) )(exists ((|v8:9| Real) )(exists ((|v7:10| Real) )(exists ((|v6:11| Real) )(forall ((|v5:12| Real) )(forall ((|v4:13| Real) )(forall ((|v3:14| Real) )(forall ((|v2:15| Real) )(forall ((|v1:16| Real) )(forall ((|v0:17| Real) )(let ((?x61 (- 9)))
(let ((?x314 (* ?x61 |v4:13|)))
(let ((?x130 14))
(let ((?x504 (* ?x130 |v12:5|)))
(let ((?x374 13))
(let ((?x799 (* ?x374 |v10:7|)))
(let ((?x991 (+ (+ (* 9 |v2:15|) (* (- 14) |v10:7|)) (* 6 |v0:17|))))
(let (($x997 (<= (+ (+ (+ (+ ?x991 ?x799) ?x504) ?x314) (* 18 |v16:1|)) ?x61)))
(let ((?x65 (- 5)))
(let ((?x115 3))
(let ((?x391 (* ?x115 |v3:14|)))
(let ((?x29 2))
(let ((?x441 (* ?x29 |v9:8|)))
(let ((?x975 (+ (+ (* (- 3) |v11:6|) (* (- 3) |v9:8|)) (* 4 |v6:11|))))
(let (($x982 (<= (+ (+ (+ (+ ?x975 ?x441) ?x391) (* ?x374 |v17:0|)) (* ?x65 |v4:13|)) ?x65)))
(let ((?x159 17))
(let ((?x947 (* ?x159 |v6:11|)))
(let ((?x963 (+ (+ (+ (* ?x159 |v11:6|) (* ?x130 |v1:16|)) (* (- 11) |v8:9|)) ?x947)))
(let ((?x969 (+ (+ (+ ?x963 (* 12 |v0:17|)) (* (- 14) |v0:17|)) (* (- 2) |v17:0|))))
(let ((?x951 (+ (+ (+ (* ?x29 |v16:1|) ?x947) (* ?x159 |v12:5|)) (* (- 2) |v5:12|))))
(let ((?x957 (+ (+ (+ ?x951 (* 18 |v15:2|)) (* (- 15) |v6:11|)) (* (- 19) |v7:10|))))
(let ((?x139 (- 1)))
(let ((?x134 (- 13)))
(let ((?x190 (* ?x134 |v11:6|)))
(let ((?x938 (+ (+ (* ?x130 |v5:12|) (* 9 |v6:11|)) (* (- 8) |v9:8|))))
(let ((?x944 (+ (+ (+ (+ ?x938 (* (- 19) |v4:13|)) |v4:13|) (* ?x134 |v5:12|)) ?x190)))
(let ((?x177 (- 3)))
(let ((?x49 8))
(let ((?x194 (* ?x49 |v17:0|)))
(let ((?x253 (- 19)))
(let ((?x528 (* ?x253 |v2:15|)))
(let ((?x926 (+ (+ (+ (* 10 |v11:6|) (* (- 17) |v16:1|)) ?x528) (* ?x49 |v8:9|))))
(let ((?x931 (+ (+ (+ ?x926 (* (- 10) |v4:13|)) ?x194) (* (- 6) |v9:8|))))
(let ((?x10 20))
(let ((?x24 (- 2)))
(let ((?x642 (* ?x24 |v6:11|)))
(let ((?x124 19))
(let ((?x654 (* ?x124 |v5:12|)))
(let ((?x145 9))
(let ((?x146 (* ?x145 |v12:5|)))
(let ((?x415 (* ?x10 |v11:6|)))
(let ((?x916 (+ (+ (+ (* 11 |v11:6|) (* (- 18) |v13:4|)) ?x415) ?x146)))
(let (($x933 (or (<= (+ (+ (+ ?x916 ?x654) ?x642) (* 11 |v1:16|)) ?x10) (<= ?x931 ?x177))))
(let ((?x40 (- 6)))
(let ((?x905 (+ (+ (+ (* ?x61 |v11:6|) (* ?x130 |v4:13|)) (* 0 |v17:0|)) (* ?x374 |v8:9|))))
(let ((?x911 (+ (+ (+ ?x905 (* (- 10) |v16:1|)) (* (- 11) |v1:16|)) (* 5 |v7:10|))))
(let ((?x81 (- 7)))
(let ((?x508 (* ?x115 |v10:7|)))
(let ((?x896 (* ?x159 |v11:6|)))
(let ((?x107 (- 14)))
(let ((?x858 (* ?x107 |v5:12|)))
(let ((?x895 (+ (+ (+ (* (- 16) |v9:8|) (* ?x374 |v4:13|)) ?x858) (* ?x253 |v14:3|))))
(let (($x934 (or (or (<= (+ (+ (+ ?x895 ?x896) ?x415) ?x508) ?x81) (<= ?x911 ?x40)) $x933)))
(let (($x985 (or $x934 (and (and (<= ?x944 ?x139) (<= ?x957 ?x159)) (or (<= ?x969 ?x115) $x982)))))
(let ((?x19 10))
(let ((?x323 (* ?x19 |v4:13|)))
(let ((?x878 (+ (+ (* 16 |v1:16|) (* 18 |v7:10|)) (* 16 |v16:1|))))
(let ((?x885 (+ (+ (+ (+ ?x878 ?x323) (* 6 |v5:12|)) (* ?x81 |v15:2|)) (* ?x49 |v7:10|))))
(let ((?x14 16))
(let ((?x456 (* ?x14 |v3:14|)))
(let ((?x867 (+ (+ (+ (* ?x14 |v15:2|) (* ?x159 |v17:0|)) (* (- 12) |v6:11|)) (* (- 15) |v4:13|))))
(let ((?x872 (+ (+ (+ ?x867 (* (- 18) |v3:14|)) (* (- 4) |v3:14|)) ?x456)))
(let ((?x69 7))
(let ((?x317 4))
(let ((?x318 (* ?x317 |v13:4|)))
(let ((?x110 (* ?x81 |v16:1|)))
(let ((?x855 (+ (+ (* 15 |v5:12|) (* ?x29 |v7:10|)) (* (- 20) |v9:8|))))
(let ((?x86 (- 11)))
(let ((?x664 (* ?x86 |v13:4|)))
(let ((?x215 (- 10)))
(let ((?x302 (* ?x215 |v15:2|)))
(let ((?x845 (+ (+ (+ (* ?x69 |v5:12|) (* (- 15) |v3:14|)) ?x302) (* ?x134 |v6:11|))))
(let (($x851 (<= (+ (+ (+ ?x845 (* (- 18) |v15:2|)) ?x664) (* ?x14 |v8:9|)) ?x14)))
(let (($x889 (and (and $x851 (<= (+ (+ (+ (+ ?x855 |v4:13|) ?x110) ?x858) ?x318) ?x69)) (or (<= ?x872 ?x130) (<= ?x885 1)))))
(let ((?x140 (* ?x139 |v5:12|)))
(let ((?x197 (- 17)))
(let ((?x333 (* ?x197 |v8:9|)))
(let ((?x210 12))
(let ((?x583 (* ?x210 |v7:10|)))
(let ((?x833 (+ (+ (+ (* (- 16) |v12:5|) (* (- 16) |v0:17|)) ?x583) ?x333)))
(let ((?x341 (* ?x40 |v16:1|)))
(let ((?x187 0))
(let ((?x320 (* ?x187 |v3:14|)))
(let ((?x822 (+ (+ (+ (* ?x40 |v8:9|) (* ?x187 |v13:4|)) (* (- 12) |v0:17|)) ?x320)))
(let (($x828 (<= (+ (+ (+ ?x822 (* ?x134 |v2:15|)) (* (- 18) |v17:0|)) ?x341) ?x197)))
(let (($x839 (and $x828 (<= (+ (+ (+ ?x833 ?x140) (* (- 12) |v17:0|)) ?x140) ?x139))))
(let ((?x25 (* ?x24 |v2:15|)))
(let ((?x271 (* ?x130 |v14:3|)))
(let ((?x814 (+ (+ (+ (+ (* ?x159 |v0:17|) (* ?x19 |v2:15|)) (* ?x145 |v3:14|)) ?x271) |v12:5|)))
(let ((?x692 (* ?x177 |v5:12|)))
(let ((?x91 (- 15)))
(let ((?x384 (* ?x91 |v9:8|)))
(let ((?x803 (+ (+ (+ (* (- 20) |v16:1|) ?x799) (* (- 4) |v9:8|)) ?x384)))
(let (($x819 (and (<= (+ (+ (+ ?x803 (* ?x317 |v15:2|)) ?x692) |v7:10|) ?x86) (<= (+ (+ ?x814 ?x25) (* (- 20) |v10:7|)) ?x107))))
(let ((?x184 11))
(let ((?x710 (* ?x184 |v13:4|)))
(let ((?x752 (* ?x159 |v13:4|)))
(let ((?x421 (* ?x187 |v11:6|)))
(let ((?x790 (+ (+ (+ (+ (* ?x215 |v10:7|) (* ?x65 |v15:2|)) (* ?x215 |v5:12|)) ?x421) ?x752)))
(let ((?x279 (- 12)))
(let ((?x62 (* ?x61 |v17:0|)))
(let ((?x779 (+ (+ (+ (+ ?x528 |v9:8|) (* ?x61 |v0:17|)) (* ?x145 |v5:12|)) (* ?x197 |v11:6|))))
(let (($x795 (and (<= (+ (+ ?x779 (* ?x130 |v16:1|)) ?x62) ?x279) (<= (+ (+ ?x790 ?x710) (* ?x253 |v10:7|)) ?x177))))
(let ((?x768 (* ?x107 |v10:7|)))
(let ((?x103 (- 8)))
(let ((?x544 (* ?x103 |v5:12|)))
(let ((?x765 (+ (+ (+ (* 6 |v9:8|) (* ?x29 |v3:14|)) (* ?x19 |v1:16|)) ?x544)))
(let ((?x95 (- 20)))
(let ((?x756 (* ?x95 |v14:3|)))
(let ((?x759 (+ (+ (+ (+ (+ ?x752 |v2:15|) (* ?x29 |v14:3|)) (* ?x103 |v3:14|)) ?x756) (* ?x130 |v8:9|))))
(let (($x772 (and (<= (+ ?x759 ?x756) ?x40) (<= (+ (+ (+ ?x765 (* ?x14 |v7:10|)) ?x768) ?x146) ?x374))))
(let ((?x262 (* ?x40 |v8:9|)))
(let ((?x70 (* ?x69 |v12:5|)))
(let ((?x78 18))
(let ((?x79 (* ?x78 |v13:4|)))
(let ((?x745 (+ (+ (+ ?x70 (* 15 |v0:17|)) |v13:4|) (* 6 |v13:4|))))
(let ((?x734 (+ (+ (+ (* ?x124 |v6:11|) (* ?x115 |v14:3|)) (* ?x40 |v0:17|)) (* ?x317 |v4:13|))))
(let ((?x740 (+ (+ (+ ?x734 (* ?x10 |v2:15|)) (* 6 |v6:11|)) (* ?x184 |v8:9|))))
(let ((?x603 (* ?x145 |v4:13|)))
(let ((?x494 (* ?x215 |v17:0|)))
(let ((?x722 (+ (+ (+ (* ?x130 |v4:13|) (* 15 |v0:17|)) (* ?x14 |v14:3|)) (* ?x210 |v4:13|))))
(let ((?x659 (* ?x95 |v5:12|)))
(let ((?x709 (+ (+ (+ (* ?x95 |v15:2|) (* ?x24 |v13:4|)) (* ?x145 |v13:4|)) (* ?x78 |v17:0|))))
(let (($x728 (or (<= (+ (+ (+ ?x709 ?x710) (* ?x187 |v9:8|)) ?x659) ?x187) (<= (+ (+ (+ ?x722 (* ?x134 |v16:1|)) ?x494) ?x603) ?x177))))
(let (($x751 (or $x728 (and (<= ?x740 ?x124) (<= (+ (+ (+ ?x745 ?x79) ?x70) ?x262) ?x10)))))
(let ((?x37 5))
(let ((?x419 (* ?x37 |v8:9|)))
(let ((?x696 (+ (+ (+ (+ (* ?x145 |v9:8|) (* ?x177 |v4:13|)) ?x692) (* ?x81 |v4:13|)) ?x419)))
(let ((?x72 (- 4)))
(let ((?x360 (* ?x72 |v16:1|)))
(let ((?x680 (+ (+ (+ (* ?x139 |v13:4|) (* ?x197 |v9:8|)) (* ?x19 |v13:4|)) (* (- 16) |v7:10|))))
(let ((?x467 (* ?x317 |v9:8|)))
(let ((?x282 (* ?x103 |v17:0|)))
(let ((?x670 (+ (+ (+ (+ (+ (* ?x107 |v7:10|) ?x664) (* ?x145 |v14:3|)) ?x314) ?x282) ?x467)))
(let (($x687 (and (<= (+ ?x670 (* ?x86 |v14:3|)) ?x81) (<= (+ (+ (+ ?x680 (* ?x72 |v5:12|)) ?x360) (* ?x24 |v7:10|)) ?x134))))
(let ((?x33 (* ?x10 |v12:5|)))
(let ((?x276 (* ?x49 |v4:13|)))
(let ((?x660 (+ (+ (+ (+ (+ ?x654 ?x323) (* ?x103 |v3:14|)) (* ?x139 |v17:0|)) ?x276) ?x659)))
(let ((?x648 (* ?x159 |v17:0|)))
(let ((?x647 (+ (+ (+ (* ?x177 |v13:4|) ?x642) (* ?x115 |v16:1|)) (* 15 |v8:9|))))
(let (($x663 (and (<= (+ (+ (+ ?x647 ?x648) (* ?x10 |v10:7|)) ?x33) ?x107) (<= (+ ?x660 ?x33) ?x177))))
(let (($x702 (or (or $x663 $x687) (<= (+ (+ ?x696 (* ?x124 |v14:3|)) (* (- 18) |v14:3|)) ?x215))))
(let (($x987 (and (or $x702 (and $x751 (or $x772 $x795))) (or (and (or $x819 $x839) $x889) $x985))))
(let ((?x108 (* ?x107 |v17:0|)))
(let ((?x431 (* ?x61 |v11:6|)))
(let ((?x634 (* ?x29 |v7:10|)))
(let ((?x633 (+ (+ (+ (* ?x210 |v14:3|) (* ?x124 |v16:1|)) (* ?x103 |v15:2|)) (* ?x72 |v4:13|))))
(let ((?x56 6))
(let ((?x356 (* ?x56 |v11:6|)))
(let ((?x620 (+ (+ (+ (+ (* ?x69 |v6:11|) (* ?x86 |v4:13|)) (* ?x37 |v3:14|)) ?x356) |v2:15|)))
(let ((?x150 15))
(let ((?x242 (* ?x29 |v14:3|)))
(let ((?x555 (* ?x279 |v10:7|)))
(let ((?x608 (+ (+ (+ (+ (* ?x279 |v5:12|) ?x603) (* ?x187 |v12:5|)) (* ?x86 |v10:7|)) ?x140)))
(let ((?x599 (* ?x14 |v1:16|)))
(let ((?x397 (* ?x130 |v13:4|)))
(let ((?x224 (- 18)))
(let ((?x596 (* ?x224 |v13:4|)))
(let ((?x594 (* ?x279 |v6:11|)))
(let ((?x597 (+ (+ (+ (+ (* ?x374 |v13:4|) (* ?x374 |v5:12|)) (* ?x24 |v4:13|)) ?x594) ?x596)))
(let (($x612 (and (<= (+ (+ ?x597 ?x397) ?x599) ?x184) (<= (+ (+ ?x608 ?x555) ?x242) ?x150))))
(let ((?x582 (+ (+ (+ (+ (* ?x29 |v15:2|) ?x33) (* ?x61 |v5:12|)) (* ?x177 |v17:0|)) |v17:0|)))
(let ((?x574 (* ?x139 |v17:0|)))
(let ((?x306 (* ?x65 |v5:12|)))
(let ((?x572 (+ (+ (+ (+ (* ?x69 |v2:15|) |v5:12|) (* ?x197 |v7:10|)) (* ?x40 |v7:10|)) (* ?x159 |v4:13|))))
(let (($x588 (or (<= (+ (+ ?x572 ?x306) ?x574) ?x134) (<= (+ (+ ?x582 ?x583) (* ?x86 |v6:11|)) ?x24))))
(let (($x626 (and (and $x588 $x612) (<= (+ (+ ?x620 (* ?x91 |v2:15|)) (* ?x61 |v6:11|)) ?x210))))
(let ((?x435 (* ?x159 |v9:8|)))
(let ((?x560 (+ (+ (+ (+ (* ?x374 |v2:15|) ?x555) (* ?x134 |v8:9|)) ?x314) (* ?x37 |v14:3|))))
(let ((?x546 (* ?x40 |v0:17|)))
(let ((?x543 (+ (+ (+ (* ?x81 |v5:12|) (* ?x29 |v5:12|)) (* ?x56 |v10:7|)) (* ?x86 |v12:5|))))
(let ((?x200 (* ?x91 |v13:4|)))
(let ((?x531 (* ?x197 |v7:10|)))
(let ((?x533 (+ (+ (+ (+ ?x528 (* (- 16) |v14:3|)) (* ?x10 |v15:2|)) ?x531) ?x314)))
(let (($x551 (or (<= (+ (+ ?x533 ?x200) (* ?x124 |v3:14|)) ?x19) (<= (+ (+ (+ ?x543 ?x544) ?x546) (* ?x150 |v16:1|)) ?x124))))
(let ((?x96 (* ?x95 |v0:17|)))
(let ((?x361 (* ?x145 |v6:11|)))
(let ((?x522 (+ (+ (+ (+ ?x33 (* ?x56 |v3:14|)) (* ?x56 |v10:7|)) (* ?x37 |v6:11|)) ?x361)))
(let ((?x499 (* ?x14 |v0:17|)))
(let ((?x512 (+ (+ (+ (+ (+ ?x504 (* ?x19 |v5:12|)) ?x397) ?x508) (* ?x124 |v11:6|)) ?x499)))
(let (($x527 (and (<= (+ ?x512 (* ?x78 |v14:3|)) ?x61) (<= (+ (+ ?x522 ?x96) (* ?x134 |v9:8|)) ?x130))))
(let ((?x449 (* ?x72 |v11:6|)))
(let ((?x497 (+ (+ (+ (+ (* ?x210 |v6:11|) (* ?x78 |v10:7|)) (* ?x253 |v0:17|)) ?x494) (* ?x49 |v0:17|))))
(let ((?x483 (+ (+ (+ (* ?x78 |v0:17|) (* ?x139 |v2:15|)) (* ?x65 |v2:15|)) (* ?x14 |v2:15|))))
(let (($x502 (or (<= (+ (+ (+ ?x483 (* ?x14 |v5:12|)) (* ?x184 |v17:0|)) |v9:8|) ?x177) (<= (+ (+ ?x497 ?x449) ?x499) ?x210))))
(let ((?x472 (+ (+ (+ (+ (+ (* ?x95 |v1:16|) (* ?x61 |v16:1|)) ?x467) ?x318) ?x384) (* ?x78 |v4:13|))))
(let ((?x332 (* ?x187 |v16:1|)))
(let ((?x212 (* ?x56 |v15:2|)))
(let ((?x45 (- 16)))
(let ((?x112 (* ?x45 |v9:8|)))
(let ((?x461 (+ (+ (+ (+ (+ ?x33 (* ?x177 |v1:16|)) ?x456) (* ?x40 |v17:0|)) ?x112) ?x212)))
(let (($x503 (and (or (<= (+ ?x461 ?x332) ?x253) (<= (+ ?x472 (* ?x72 |v2:15|)) ?x95)) $x502)))
(let (($x565 (and (and $x503 (and $x527 $x551)) (<= (+ (+ ?x560 (* ?x197 |v2:15|)) ?x435) ?x150))))
(let ((?x116 (* ?x115 |v15:2|)))
(let ((?x446 (+ (+ (+ (+ (* ?x29 |v13:4|) ?x441) (* ?x197 |v4:13|)) (* ?x159 |v12:5|)) ?x116)))
(let ((?x433 (* ?x184 |v11:6|)))
(let ((?x434 (+ (+ (+ (+ (+ (* ?x134 |v4:13|) ?x318) ?x282) (* ?x177 |v8:9|)) ?x431) ?x433)))
(let ((?x249 (* ?x65 |v16:1|)))
(let ((?x11 (* ?x10 |v15:2|)))
(let ((?x424 (+ (+ (+ (+ (+ (+ ?x415 ?x384) (* ?x224 |v4:13|)) ?x419) ?x421) ?x11) ?x249)))
(let ((?x407 (+ (+ (+ (* ?x210 |v11:6|) (* ?x65 |v8:9|)) (* ?x150 |v11:6|)) (* ?x224 |v1:16|))))
(let ((?x293 (* ?x95 |v16:1|)))
(let ((?x395 (* ?x159 |v0:17|)))
(let ((?x398 (+ (+ (+ (+ (+ ?x293 (* ?x145 |v0:17|)) ?x391) (* ?x210 |v8:9|)) ?x395) ?x397)))
(let (($x414 (or (<= (+ ?x398 ?x293) ?x72) (<= (+ (+ (+ ?x407 (* ?x19 |v6:11|)) (* ?x107 |v16:1|)) |v0:17|) ?x145))))
(let ((?x87 (* ?x86 |v8:9|)))
(let ((?x380 (+ (+ (+ (* ?x61 |v2:15|) (* ?x374 |v14:3|)) (* ?x107 |v7:10|)) (* ?x24 |v3:14|))))
(let ((?x369 (* ?x56 |v9:8|)))
(let ((?x368 (+ (+ (+ (+ (+ ?x360 ?x361) (* ?x103 |v3:14|)) (* ?x61 |v12:5|)) ?x79) ?x282)))
(let (($x387 (and (<= (+ ?x368 ?x369) ?x14) (<= (+ (+ (+ ?x380 (* ?x279 |v13:4|)) ?x87) ?x384) ?x19))))
(let ((?x352 (* ?x69 |v5:12|)))
(let ((?x351 (+ (+ (+ (* ?x69 |v0:17|) (* ?x14 |v17:0|)) (* ?x115 |v6:11|)) (* ?x139 |v3:14|))))
(let ((?x340 (+ (+ (+ (+ ?x332 ?x333) (* ?x103 |v7:10|)) (* ?x65 |v6:11|)) (* ?x91 |v11:6|))))
(let (($x359 (and (<= (+ (+ ?x340 ?x341) (* ?x177 |v3:14|)) ?x29) (<= (+ (+ (+ ?x351 ?x352) (* ?x37 |v2:15|)) ?x356) ?x224))))
(let (($x440 (or (and $x359 $x387) (and $x414 (and (<= ?x424 ?x69) (<= (+ ?x434 ?x435) ?x10))))))
(let ((?x326 (+ (+ (+ (+ (+ (+ ?x314 ?x146) ?x318) ?x320) (* ?x69 |v3:14|)) ?x323) (* ?x91 |v17:0|))))
(let ((?x120 (* ?x69 |v17:0|)))
(let ((?x310 (* ?x197 |v16:1|)))
(let ((?x308 (* ?x115 |v6:11|)))
(let ((?x311 (+ (+ (+ (+ (+ (* ?x139 |v8:9|) ?x302) (* ?x40 |v12:5|)) ?x306) ?x308) ?x310)))
(let ((?x297 (* ?x187 |v13:4|)))
(let ((?x292 (+ (+ (+ (* ?x139 |v4:13|) (* ?x177 |v2:15|)) (* ?x184 |v10:7|)) (* ?x103 |v12:5|))))
(let ((?x283 (+ (+ (+ (+ (+ |v16:1| ?x271) (* ?x81 |v7:10|)) ?x276) (* ?x279 |v0:17|)) ?x282)))
(let (($x300 (and (<= (+ ?x283 (* ?x124 |v13:4|)) ?x95) (<= (+ (+ (+ ?x292 ?x293) (* ?x29 |v10:7|)) ?x297) ?x37))))
(let ((?x261 (+ (+ (+ (* ?x224 |v6:11|) (* ?x210 |v15:2|)) (* ?x86 |v10:7|)) (* ?x65 |v14:3|))))
(let ((?x251 (* ?x134 |v8:9|)))
(let ((?x248 (+ (+ (+ (+ ?x242 (* ?x29 |v13:4|)) (* ?x197 |v1:16|)) (* ?x49 |v14:3|)) (* ?x24 |v10:7|))))
(let (($x269 (and (<= (+ (+ ?x248 ?x249) ?x251) ?x253) (<= (+ (+ (+ ?x261 ?x262) (* ?x187 |v7:10|)) (* ?x61 |v10:7|)) ?x139))))
(let ((?x232 (+ (+ (+ (* ?x72 |v10:7|) (* ?x115 |v12:5|)) (* ?x24 |v12:5|)) (* ?x145 |v11:6|))))
(let (($x239 (<= (+ (+ (+ ?x232 (* ?x24 |v9:8|)) (* ?x95 |v13:4|)) (* ?x91 |v0:17|)) ?x145)))
(let ((?x220 (+ (+ (+ (+ (* ?x210 |v2:15|) ?x212) (* ?x215 |v12:5|)) (* ?x49 |v11:6|)) (* ?x187 |v1:16|))))
(let (($x330 (or (and (and (<= (+ (+ ?x220 ?x200) (* ?x29 |v6:11|)) ?x224) $x239) $x269) (or $x300 (and (<= (+ ?x311 ?x120) ?x56) (<= ?x326 ?x150))))))
(let ((?x198 (* ?x197 |v1:16|)))
(let ((?x201 (+ (+ (+ (+ (+ (* ?x29 |v2:15|) ?x190) (* ?x24 |v11:6|)) ?x194) ?x198) ?x200)))
(let ((?x185 (* ?x184 |v10:7|)))
(let ((?x178 (* ?x177 |v13:4|)))
(let ((?x175 (+ (+ (+ (* ?x69 |v3:14|) (* ?x65 |v7:10|)) (* ?x10 |v5:12|)) (* ?x150 |v13:4|))))
(let (($x205 (and (<= (+ (+ (+ ?x175 ?x178) (* ?x49 |v6:11|)) ?x185) ?x187) (<= (+ ?x201 (* ?x124 |v0:17|)) ?x177))))
(let ((?x162 (* ?x61 |v5:12|)))
(let ((?x160 (* ?x159 |v12:5|)))
(let ((?x157 (+ (+ (+ (* ?x150 |v1:16|) (* ?x72 |v12:5|)) (* ?x78 |v10:7|)) (* ?x49 |v1:16|))))
(let ((?x141 (+ (+ (+ (+ (* ?x72 |v7:10|) (* ?x130 |v2:15|)) (* ?x134 |v15:2|)) ?x62) ?x140)))
(let (($x167 (or (<= (+ (+ ?x141 (* ?x69 |v13:4|)) ?x146) ?x115) (<= (+ (+ (+ ?x157 ?x160) ?x162) (* ?x145 |v15:2|)) ?x78))))
(let ((?x122 (* ?x45 |v14:3|)))
(let ((?x123 (+ (+ (+ (+ (+ (+ ?x108 ?x110) ?x112) ?x116) (* ?x49 |v14:3|)) ?x120) ?x122)))
(let ((?x99 (+ (+ (+ (+ (+ ?x79 (* ?x81 |v11:6|)) ?x87) (* ?x91 |v7:10|)) ?x96) (* ?x65 |v12:5|))))
(let ((?x58 (+ (+ (+ (* ?x45 |v1:16|) (* ?x49 |v5:12|)) (* ?x49 |v11:6|)) (* ?x56 |v2:15|))))
(let ((?x30 (* ?x29 |v3:14|)))
(let ((?x34 (+ (+ (+ (+ (+ ?x11 (* ?x14 |v9:8|)) (* ?x19 |v10:7|)) ?x25) ?x30) ?x33)))
(let (($x74 (and (<= (+ ?x34 (* ?x37 |v0:17|)) ?x40) (<= (+ (+ (+ ?x58 ?x62) (* ?x65 |v3:14|)) ?x70) ?x72))))
(let (($x207 (and (or $x74 (or (<= (+ ?x99 (* ?x19 |v14:3|)) ?x103) (<= ?x123 ?x124))) (or $x167 $x205))))
(let (($x453 (and (or $x207 $x330) (and $x440 (<= (+ (+ ?x446 (* ?x124 |v8:9|)) ?x449) ?x65)))))
(let (($x641 (or $x453 (and $x565 (and $x626 (<= (+ (+ (+ ?x633 ?x634) ?x431) ?x108) ?x86))))))
(and $x641 (or $x987 $x997))))))))))))))))))))))))))))))))))))))))))))))))))))))))))))))))))))))))))))))))))))))))))))))))))))))))))))))))))))))))))))))))))))))))))))))))))))))))))))))))))))))))))))))))))))))))))))))))))))))))))))))))))))))))))))))))))))))))))))))))))))))))))))))))
)
)
)
)
)
)
)
)
)
)
)
)
)
)
)
)
)
)
(check-sat)
(exit)

